8334
8, 41, 19, 18, 3, 17, 2, 7, 42, 21, 31, 23, 30, 20, 50, 29, 16, 46, 24, 48, 5, 15, 43, 33, 51, 11, 52, 14, 13, 47, 26, 27, 28, 12, 25, 4, 6, 38, 40, 37, 39, 36, 34, 44, 35, 49, 1, 22, 32, 45, 9, 10
